(set-logic QF_SLIA)
(declare-fun var0 () String)
(assert (str.in_re var0 (re.++ ((_ re.loop 1 4) (re.++ ((_ re.loop 5 17) (str.to_re "\\")) (re.++ ((_ re.loop 5 15) (str.to_re "oA4")) (re.++ ((_ re.loop 5 6) (str.to_re "=fV")) ((_ re.loop 0 20) (str.to_re "[5.")))))) (re.++ ((_ re.loop 0 4) (re.++ ((_ re.loop 1 14) (str.to_re "Zu)")) (re.++ ((_ re.loop 2 7) (str.to_re "uW")) (re.++ ((_ re.loop 3 19) (str.to_re "=U")) ((_ re.loop 3 8) (str.to_re "%")))))) (re.++ ((_ re.loop 0 6) (re.++ ((_ re.loop 1 16) (str.to_re "K")) (re.++ ((_ re.loop 2 6) (str.to_re "hl")) (re.++ ((_ re.loop 0 20) (str.to_re "y3,")) ((_ re.loop 4 19) (str.to_re "2\u0022")))))) ((_ re.loop 1 1) (re.++ ((_ re.loop 2 7) (str.to_re "&$")) (re.++ ((_ re.loop 2 13) (str.to_re "*Z")) (re.++ ((_ re.loop 0 5) (str.to_re "TL")) ((_ re.loop 3 6) (str.to_re "]")))))))))))
(assert (not (str.in_re var0 (re.++ (re.* re.allchar) (re.++ (re.union (str.to_re "<") (re.union (str.to_re ">") (re.union (str.to_re "'") (re.union (str.to_re "\u0022") (str.to_re "&"))))) (re.* re.allchar))))))
(assert (<= 50 (str.len var0)))
(check-sat)
(get-model)
